c ---- [ banner ] ------------------------------------------------------------
c
c Kissat SAT Solver
c 
c Copyright (c) 2021-2024 Armin Biere University of Freiburg
c Copyright (c) 2019-2021 Armin Biere Johannes Kepler University Linz
c 
c Version 4.0.1 43f02cf3e992cb44653b35e5cb26f93281552ae0
c gcc (Ubuntu 13.2.0-23ubuntu4) 13.2.0 -W -Wall -O3 -DNDEBUG
c Thu Sep 12 12:27:46 CEST 2024 Linux abryzen9 6.8.0-41-generic x86_64
c
c ---- [ parsing ] -----------------------------------------------------------
c
c opened and reading DIMACS file:
c
c   /data/artifact/AMulet2.0_artifact/exp4/cnf_dc2_64/64_64_U2_DT_HCA_Multgen_dc2.cnf
c
c parsed 'p cnf 33992 152492' header
c closing input after reading 3092039 bytes (3 MB)
c finished parsing after 0.03 seconds
c
c ---- [ options ] -----------------------------------------------------------
c
c --stable=0                       (different from default '1')
c
c ---- [ solving ] -----------------------------------------------------------
c
c  seconds switched rate     size/glue tier1  binary          remaining
c         MB reductions conflicts size  tier2    irredundant
c          level restarts redundant glue  trail          variables
c
c *  0.03 15 0 0 0  0 0   0   0 0.0 0 0 0 0 0% 2456 150034 33989 100%
c (  0.05 18 0 0 0  0 0   0   0 0.0 0 0 0 0 0% 2456 150034 33989 100%
c .  0.06 18 0 0 0  0 0   0   0 0.0 0 0 0 0 0% 2452 150034 33989 100%
c c  0.17 26 0 0 0  0 0   0   0 0.0 0 0 0 0 0% 15931 123086 27250 80%
c d  0.18 26 0 0 0  0 0   0   0 0.0 0 0 0 0 0% 2451 123086 27250 80%
c =  0.24 26 0 0 0  0 0   0   0 0.0 0 0 0 0 0% 3119 123086 26913 79%
c d  0.25 26 0 0 0  0 0   0   0 0.0 0 0 0 0 0% 2445 123086 26913 79%
c f  0.36 25 0 0 0  0 0   0   0 0.0 0 0 0 0 0% 8822 113451 30120 89%
c e  0.62 27 0 0 0  0 0   0   0 0.0 0 0 0 0 0% 1533 123190 20249 60%
c )  0.62 27 0 0 0  0 0   0   0 0.0 0 0 0 0 0% 1533 123190 20249 60%
c {  0.65 27 0 0 0  0 0   0   0 0.0 0 0 2 6 0% 1533 123190 20249 60%
c -  0.90 27 159 0 1 180 28 1001 837 3.1 17 6 3 11 20% 1536 123190 20249 60%
c -  0.97 27 312 0 2 214 28 2001 1570 2.7 13 5 2 8 16% 1579 123190 20249 60%
c c  1.13 27 294 0 2 253 30 2505 1997 2.8 13 4 2 8 17% 2298 120350 19893 59%
c d  1.13 27 294 0 2 253 30 2505 1991 2.8 13 4 2 8 17% 1587 120350 19893 59%
c u  1.15 27 294 0 2 253 30 2505 1788 2.8 13 4 2 8 17% 1588 120350 19893 59%
c v  1.17 27 294 0 2 253 30 2505 1467 2.8 13 4 2 8 17% 1588 120350 19893 59%
c w  1.18 27 294 0 2 253 30 2505 1467 2.8 13 4 2 8 17% 1588 120350 19893 59%
c x  1.20 27 294 0 2 253 30 2505 1467 2.8 13 4 2 8 17% 1588 120284 19893 59%
c =  1.25 27 294 0 2 253 30 2505 1467 2.8 13 4 2 8 17% 1786 120284 19794 58%
c
c  seconds   switched   rate       size/glue tier1    binary          remaining
c         MB  reductions conflicts       size  tier2     irredundant
c           level restarts    redundant    glue   trail          variables
c
c d  1.26 27 294 0 2 253 30 2505 1466 2.8 13 4 2 8 17% 1588 120284 19794 58%
c f  1.29 27 294 0 2 253 30 2505 1466 2.8 13 4 2 8 17% 1620 120236 19810 58%
c u  1.38 27 294 0 2 253 30 2505 1429 2.8 13 4 2 8 17% 1621 120236 19810 58%
c v  1.39 27 294 0 2 253 30 2505 1365 2.8 13 4 2 8 17% 1621 120236 19810 58%
c w  1.41 27 294 0 2 253 30 2505 1354 2.8 13 4 2 8 17% 1621 120236 19810 58%
c x  1.42 27 294 0 2 253 30 2505 1354 2.8 13 4 2 8 17% 1621 120204 19810 58%
c =  1.47 27 294 0 2 253 30 2505 1354 2.8 13 4 2 8 17% 1813 120204 19714 58%
c d  1.48 27 294 0 2 253 30 2505 1354 2.8 13 4 2 8 17% 1621 120204 19714 58%
c t  1.49 27 294 0 2 253 30 2505 1354 2.8 13 4 2 8 17% 1581 120204 19714 58%
c f  1.51 27 294 0 2 253 30 2505 1354 2.8 13 4 2 8 17% 1587 120194 19717 58%
c -  1.73 27 294 0 3 381 35 3415 1918 3.1 14 5 2 8 19% 1612 120194 19717 58%
c -  2.59 27 283 0 4 808 48 5149 3068 3.8 23 6 2 8 23% 1660 120194 19717 58%
c -  3.01 27 250 0 5 996 41 7151 4338 3.6 23 6 2 9 23% 1675 120194 19717 58%
c d  3.15 27 242 0 5 1030 40 7712 4855 3.6 22 6 2 9 24% 1643 120194 19698 58%
c u  3.19 27 242 0 5 1030 40 7712 4577 3.6 22 6 2 9 24% 1647 120194 19698 58%
c v  3.23 27 242 0 5 1030 40 7712 3807 3.6 22 6 2 9 24% 1648 120194 19698 58%
c w  3.25 27 242 0 5 1030 40 7712 3799 3.6 22 6 2 9 24% 1648 120194 19698 58%
c =  3.40 27 242 0 5 1030 40 7712 3799 3.6 22 6 2 9 24% 2294 120194 19375 57%
c d  3.41 27 242 0 5 1030 40 7712 3766 3.6 22 6 2 9 24% 1636 120194 19375 57%
c t  3.42 27 242 0 5 1030 40 7712 3766 3.6 22 6 2 9 24% 1632 120194 19375 57%
c
c  seconds   switched    rate       size/glue tier1    binary          remaining
c         MB  reductions  conflicts       size  tier2     irredundant
c           level  restarts    redundant    glue   trail          variables
c
c f  3.46 27 242 0 5 1030 40 7712 3766 3.6 22 6 2 9 24% 1668 120140 19393 57%
c u  3.54 27 242 0 5 1030 40 7712 3713 3.6 22 6 2 9 24% 1668 120140 19393 57%
c v  3.56 27 242 0 5 1030 40 7712 3585 3.6 22 6 2 9 24% 1668 120140 19393 57%
c w  3.58 27 242 0 5 1030 40 7712 3569 3.6 22 6 2 9 24% 1668 120140 19393 57%
c x  3.64 27 242 0 5 1030 40 7712 3569 3.6 22 6 2 9 24% 1670 118374 19393 57%
c =  3.81 27 242 0 5 1030 40 7712 3569 3.6 22 6 2 9 24% 1848 118374 19304 57%
c d  3.82 27 242 0 5 1030 40 7712 3567 3.6 22 6 2 9 24% 1669 118374 19304 57%
c t  3.84 27 242 0 5 1030 40 7712 3567 3.6 22 6 2 9 24% 1651 118374 19304 57%
c f  3.88 27 242 0 5 1030 40 7712 3567 3.6 22 6 2 9 24% 1729 118257 19343 57%
c -  4.23 27 251 0 6 1157 37 9388 4585 3.5 22 6 2 8 23% 1748 118257 19343 57%
c o  4.34 27 243 0 6 1223 36 10069 5187 3.5 22 6 2 8 23% 1756 118257 19343 57%
c -  4.68 27 240 0 7 1361 36 11838 6074 3.7 23 6 2 8 24% 1797 118257 19343 57%
c s  4.74 27 233 0 7 1374 34 12520 6661 3.6 22 6 2 8 23% 1809 114710 19343 57%
c e  4.82 27 233 0 7 1374 34 12520 6661 3.6 22 6 2 8 23% 1394 114969 19054 56%
c s  4.82 27 233 0 7 1374 34 12520 6661 3.6 22 6 2 8 23% 1394 114776 19054 56%
c e  4.82 27 233 0 7 1374 34 12520 6661 3.6 22 6 2 8 23% 1393 114777 19053 56%
c ^  4.82 27 233 0 7 1374 34 12520 6661 3.6 22 6 2 8 23% 1393 114777 19053 56%
c -  5.21 27 227 0 8 1558 34 14485 7306 3.5 25 7 2 8 24% 1415 114777 19053 56%
c d  5.59 27 233 0 8 1745 35 15797 8422 3.6 28 8 2 8 24% 1419 114777 19032 56%
c u  5.63 27 233 0 8 1745 35 15797 7748 3.6 28 8 2 8 24% 1425 114777 19032 56%
c
c  seconds   switched    rate        size/glue tier1    binary          remaining
c         MB  reductions   conflicts       size  tier2     irredundant
c           level  restarts     redundant    glue   trail          variables
c
c v  5.68 27 233 0 8 1745 35 15797 6630 3.6 28 8 2 8 24% 1427 114777 19032 56%
c w  5.71 27 233 0 8 1745 35 15797 6630 3.6 28 8 2 8 24% 1427 114777 19032 56%
c x  5.74 27 233 0 8 1745 35 15797 6630 3.6 28 8 2 8 24% 1439 114316 19032 56%
c =  5.90 27 233 0 8 1745 35 15797 6630 3.6 28 8 2 8 24% 3533 114316 17985 53%
c d  5.91 27 233 0 8 1745 35 15797 6545 3.6 28 8 2 8 24% 1378 114316 17985 53%
c t  5.91 27 233 0 8 1745 35 15797 6545 3.6 28 8 2 8 24% 1353 114316 17985 53%
c f  5.96 27 233 0 8 1745 35 15797 6545 3.6 28 8 2 8 24% 1361 114296 17991 53%
c u  5.99 27 233 0 8 1745 35 15797 6373 3.6 28 8 2 8 24% 1362 114296 17991 53%
c v  6.01 27 233 0 8 1745 35 15797 6167 3.6 28 8 2 8 24% 1362 114296 17991 53%
c w  6.10 27 233 0 8 1745 35 15797 6167 3.6 28 8 2 8 24% 1362 114296 17991 53%
c x  6.13 27 233 0 8 1745 35 15797 6167 3.6 28 8 2 8 24% 1362 111998 17991 53%
c =  6.33 27 233 0 8 1745 35 15797 6167 3.6 28 8 2 8 24% 4650 111998 16347 48%
c d  6.33 27 233 0 8 1745 35 15797 6089 3.6 28 8 2 8 24% 1293 111998 16347 48%
c -  6.72 27 232 0 9 1836 34 17313 6701 3.6 27 8 2 7 25% 1305 111998 16347 48%
c o  6.90 27 242 0 9 1904 32 20090 9029 3.5 25 7 2 7 23% 1360 111998 16347 48%
c -  6.94 27 243 0 10 1928 32 20315 8442 3.5 25 7 2 7 24% 1360 111998 16347 48%
c -  7.61 27 239 0 11 2221 32 23478 10143 3.5 26 7 2 7 24% 1375 111998 16347 48%
c s  7.90 27 237 0 11 2344 31 25030 11541 3.5 26 7 2 7 25% 1391 96896 16347 48%
c e  7.97 27 237 0 11 2344 31 25030 11541 3.5 26 7 2 7 25% 1136 97163 16168 48%
c 2  7.97 27 237 0 11 2344 31 25030 11541 3.5 26 7 2 7 25% 1135 97163 16168 48%
c
c  seconds   switched     rate         size/glue tier1    binary         remaining
c         MB   reductions   conflicts        size  tier2     irredundant
c           level   restarts      redundant    glue   trail         variables
c
c s  7.98 27 237 0 11 2344 31 25030 11541 3.5 26 7 2 7 25% 1164 96984 16168 48%
c e  7.98 27 237 0 11 2344 31 25030 11541 3.5 26 7 2 7 25% 1161 96989 16166 48%
c ^  7.98 27 237 0 11 2344 31 25030 11541 3.5 26 7 2 7 25% 1161 96989 16166 48%
c -  8.25 27 236 0 12 2480 31 26797 11337 3.5 26 7 2 7 25% 1189 96989 16166 48%
c c  8.30 27 235 0 12 2482 31 26929 11461 3.5 26 7 2 7 25% 1260 96604 16116 47%
c d  8.30 27 235 0 12 2482 31 26929 11370 3.5 26 7 2 7 25% 1160 96604 16116 47%
c u  8.33 27 235 0 12 2482 31 26929 10378 3.5 26 7 2 7 25% 1167 96604 16116 47%
c v  8.37 27 235 0 12 2482 31 26929 9244 3.5 26 7 2 7 25% 1167 96604 16116 47%
c w  8.37 27 235 0 12 2482 31 26929 9242 3.5 26 7 2 7 25% 1167 96604 16116 47%
c x  8.40 27 235 0 12 2482 31 26929 9242 3.5 26 7 2 7 25% 1167 96511 16116 47%
c =  8.57 27 235 0 12 2482 31 26929 9242 3.5 26 7 2 7 25% 3993 96511 14703 43%
c d  8.58 27 235 0 12 2482 31 26929 9083 3.5 26 7 2 7 25% 1123 96511 14703 43%
c t  8.59 27 235 0 12 2482 31 26929 9083 3.5 26 7 2 7 25% 1111 96511 14703 43%
c f  8.63 27 235 0 12 2482 31 26929 9083 3.5 26 7 2 7 25% 1133 96455 14714 43%
c u  8.67 27 235 0 12 2482 31 26929 8813 3.5 26 7 2 7 25% 1137 96455 14714 43%
c v  8.70 27 235 0 12 2482 31 26929 8553 3.5 26 7 2 7 25% 1137 96455 14714 43%
c w  8.71 27 235 0 12 2482 31 26929 8552 3.5 26 7 2 7 25% 1137 96455 14714 43%
c =  8.90 27 235 0 12 2482 31 26929 8552 3.5 26 7 2 7 25% 1173 96455 14696 43%
c d  8.91 27 235 0 12 2482 31 26929 8551 3.5 26 7 2 7 25% 1133 96455 14696 43%
c t  8.92 27 235 0 12 2482 31 26929 8551 3.5 26 7 2 7 25% 1129 96455 14696 43%
c
c  seconds   switched     rate        size/glue tier1    binary         remaining
c         MB   reductions   conflicts       size  tier2     irredundant
c           level   restarts     redundant    glue   trail         variables
c
c f  8.93 27 235 0 12 2482 31 26929 8551 3.5 26 7 2 7 25% 1131 96450 14697 43%
c -  9.49 27 230 0 13 2753 30 30261 10462 3.4 26 8 2 6 25% 1159 96450 14697 43%
c -  9.82 27 230 0 14 2911 28 33867 12377 3.3 25 8 2 6 25% 1204 96450 14697 43%
c - 10.50 27 230 0 15 3172 28 37608 13977 3.3 25 8 2 6 26% 1250 96450 14697 43%
c o 10.95 27 227 0 15 3333 28 40130 16073 3.3 25 8 2 6 26% 1296 96450 14697 43%
c c 11.36 27 226 0 15 3457 28 41256 17137 3.3 26 8 2 6 26% 1373 95970 14618 43%
c d 11.36 27 226 0 15 3457 28 41256 16934 3.3 26 8 2 6 26% 1210 95970 14615 43%
c u 11.44 27 226 0 15 3457 28 41256 15269 3.3 26 8 2 6 26% 1225 95970 14615 43%
c v 11.49 27 226 0 15 3457 28 41256 14454 3.3 26 8 2 6 26% 1226 95970 14615 43%
c w 11.54 27 226 0 15 3457 28 41256 14454 3.3 26 8 2 6 26% 1226 95970 14615 43%
c x 11.58 27 226 0 15 3457 28 41256 14454 3.3 26 8 2 6 26% 1226 95969 14615 43%
c d 11.78 27 226 0 15 3457 28 41256 14434 3.3 26 8 2 6 26% 1210 95969 14607 43%
c t 11.79 27 226 0 15 3457 28 41256 14434 3.3 26 8 2 6 26% 1208 95969 14607 43%
c f 11.79 27 226 0 15 3457 28 41256 14434 3.3 26 8 2 6 26% 1212 95959 14609 43%
c c 11.84 27 226 0 15 3457 28 41256 14413 3.3 26 8 2 6 26% 1230 95859 14598 43%
c d 11.84 27 226 0 15 3457 28 41256 14413 3.3 26 8 2 6 26% 1208 95859 14598 43%
c u 11.90 27 226 0 15 3457 28 41256 14130 3.3 26 8 2 6 26% 1211 95859 14598 43%
c v 11.95 27 226 0 15 3457 28 41256 13265 3.3 26 8 2 6 26% 1213 95859 14598 43%
c w 12.05 27 226 0 15 3457 28 41256 13248 3.3 26 8 2 6 26% 1213 95859 14598 43%
c d 12.05 27 226 0 15 3457 28 41256 13248 3.3 26 8 2 6 26% 1211 95859 14597 43%
c
c  seconds   switched     rate         size/glue tier1    binary         remaining
c         MB   reductions   conflicts        size  tier2     irredundant
c           level   restarts      redundant    glue   trail         variables
c
c t 12.06 27 226 0 15 3457 28 41256 13248 3.3 26 8 2 6 26% 1209 95859 14597 43%
c - 12.10 27 226 0 16 3478 28 41480 12086 3.3 26 8 2 6 26% 1213 95859 14597 43%
c - 12.69 27 226 0 17 3736 27 45482 14163 3.3 25 8 2 6 26% 1252 95859 14597 43%
c - 13.25 27 226 0 18 4014 27 49607 16203 3.3 25 8 2 6 26% 1306 95859 14597 43%
c s 13.45 27 226 0 18 4102 26 52131 18327 3.3 25 8 2 6 26% 1344 86356 14597 43%
c e 13.51 27 226 0 18 4102 26 52131 18327 3.3 25 8 2 6 26% 1201 86645 14439 42%
c 2 13.51 27 226 0 18 4102 26 52131 18327 3.3 25 8 2 6 26% 1200 86645 14439 42%
c s 13.51 27 226 0 18 4102 26 52131 18327 3.3 25 8 2 6 26% 1201 86457 14439 42%
c ^ 13.51 27 226 0 18 4102 26 52131 18327 3.3 25 8 2 6 26% 1201 86457 14439 42%
c - 13.70 27 228 0 19 4233 26 53850 17314 3.3 25 8 2 6 26% 1215 86457 14439 42%
c - 14.04 27 221 0 20 4401 25 58208 18887 3.2 24 7 2 6 25% 1288 86457 14439 42%
c d 14.11 27 221 0 20 4460 25 58883 19302 3.2 24 7 2 6 25% 1206 86457 14393 42%
c u 14.18 27 221 0 20 4460 25 58883 17110 3.2 24 7 2 6 25% 1250 86457 14393 42%
c v 14.23 27 221 0 20 4460 25 58883 15507 3.2 24 7 2 6 25% 1255 86457 14393 42%
c w 14.26 27 221 0 20 4460 25 58883 15463 3.2 24 7 2 6 25% 1255 86457 14393 42%
c = 14.44 27 221 0 20 4460 25 58883 15463 3.2 24 7 2 6 25% 1523 86457 14259 42%
c d 14.45 27 221 0 20 4460 25 58883 15126 3.2 24 7 2 6 25% 1182 86457 14254 42%
c t 14.46 27 221 0 20 4460 25 58883 15126 3.2 24 7 2 6 25% 1174 86457 14254 42%
c c 14.51 27 221 0 20 4460 25 58883 15126 3.2 24 7 2 6 25% 1223 86205 14224 42%
c d 14.52 27 221 0 20 4460 25 58883 15103 3.2 24 7 2 6 25% 1163 86205 14224 42%
c
c  seconds   switched     rate         size/glue tier1    binary         remaining
c         MB   reductions   conflicts        size  tier2     irredundant
c           level   restarts      redundant    glue   trail         variables
c
c u 14.57 27 221 0 20 4460 25 58883 14635 3.2 24 7 2 6 25% 1172 86205 14224 42%
c v 14.60 27 221 0 20 4460 25 58883 14298 3.2 24 7 2 6 25% 1172 86205 14224 42%
c w 14.63 27 221 0 20 4460 25 58883 14271 3.2 24 7 2 6 25% 1172 86205 14224 42%
c x 14.66 27 221 0 20 4460 25 58883 14271 3.2 24 7 2 6 25% 1172 86054 14224 42%
c = 14.83 27 221 0 20 4460 25 58883 14271 3.2 24 7 2 6 25% 1224 86054 14198 42%
c d 14.84 27 221 0 20 4460 25 58883 14240 3.2 24 7 2 6 25% 1158 86054 14196 42%
c - 15.10 27 216 0 21 4603 25 62680 16078 3.2 23 7 2 6 24% 1209 86054 14196 42%
c - 15.66 27 213 0 22 4912 24 67262 18522 3.1 23 7 2 6 25% 1236 86054 14196 42%
c o 16.13 27 212 0 22 5126 24 70134 21099 3.1 23 7 2 6 25% 1261 86054 14196 42%
c - 16.50 27 215 0 23 5337 24 71953 20500 3.2 24 7 2 6 25% 1275 86054 14196 42%
c - 16.92 27 212 0 24 5585 24 76749 22165 3.1 23 7 2 5 24% 1343 86054 14196 42%
c c 17.40 27 211 0 24 5853 23 79947 24979 3.1 23 7 2 5 24% 1413 85665 14129 42%
c d 17.41 27 211 0 24 5853 23 79947 24765 3.1 23 7 2 5 24% 1279 85665 14129 42%
c u 17.48 27 211 0 24 5853 23 79947 21803 3.1 23 7 2 5 24% 1308 85665 14129 42%
c v 17.56 27 211 0 24 5853 23 79947 20032 3.1 23 7 2 5 24% 1314 85665 14129 42%
c w 17.61 27 211 0 24 5853 23 79947 20025 3.1 23 7 2 5 24% 1314 85665 14129 42%
c = 17.74 27 211 0 24 5853 23 79947 20025 3.1 23 7 2 5 24% 1512 85665 14030 41%
c d 17.75 27 211 0 24 5853 23 79947 19876 3.1 23 7 2 5 24% 1270 85665 14022 41%
c t 17.75 27 211 0 24 5853 23 79947 19876 3.1 23 7 2 5 24% 1261 85665 14022 41%
c f 17.77 27 211 0 24 5853 23 79947 19876 3.1 23 7 2 5 24% 1274 85615 14027 41%
c
c  seconds   switched     rate         size/glue tier1    binary         remaining
c         MB   reductions   conflicts        size  tier2     irredundant
c           level   restarts      redundant    glue   trail         variables
c
c c 17.80 27 211 0 24 5853 23 79947 19856 3.1 23 7 2 5 24% 1283 85575 14022 41%
c d 17.81 27 211 0 24 5853 23 79947 19856 3.1 23 7 2 5 24% 1273 85575 14022 41%
c u 17.86 27 211 0 24 5853 23 79947 19348 3.1 23 7 2 5 24% 1278 85575 14022 41%
c v 17.90 27 211 0 24 5853 23 79947 18996 3.1 23 7 2 5 24% 1279 85575 14022 41%
c w 17.95 27 211 0 24 5853 23 79947 18990 3.1 23 7 2 5 24% 1279 85575 14022 41%
c x 17.99 27 211 0 24 5853 23 79947 18990 3.1 23 7 2 5 24% 1279 85519 14022 41%
c = 18.22 27 211 0 24 5853 23 79947 18990 3.1 23 7 2 5 24% 1779 85515 13772 41%
c d 18.23 27 211 0 24 5853 23 79947 18771 3.1 23 7 2 5 24% 1242 85515 13772 41%
c t 18.24 27 211 0 24 5853 23 79947 18771 3.1 23 7 2 5 24% 1224 85515 13772 41%
c f 18.25 27 211 0 24 5853 23 79947 18771 3.1 23 7 2 5 24% 1227 85503 13773 41%
c - 18.58 27 209 0 25 6053 23 81647 16281 3.2 24 7 1 5 25% 1237 85503 13773 41%
c - 19.44 27 205 0 26 6515 23 86647 17599 3.2 24 8 1 5 25% 1283 85503 13773 41%
c - 20.03 27 204 0 27 6892 23 91747 18935 3.2 24 8 1 5 25% 1310 85503 13773 41%
c s 21.08 27 200 0 27 7422 23 95806 22578 3.2 24 8 1 5 25% 1352 82240 13773 41%
c e 21.15 27 200 0 27 7422 23 95806 22578 3.2 24 8 1 5 25% 671 83717 13409 39%
c s 21.15 27 200 0 27 7422 23 95806 22578 3.2 24 8 1 5 25% 673 83215 13409 39%
c e 21.16 27 200 0 27 7422 23 95806 22578 3.2 24 8 1 5 25% 667 83319 13358 39%
c ^ 21.16 27 200 0 27 7422 23 95806 22578 3.2 24 8 1 5 25% 667 83319 13358 39%
c - 21.28 27 201 0 28 7522 23 96945 18400 3.2 24 8 1 5 25% 684 83319 13358 39%
c - 22.02 27 201 0 29 8053 24 102236 19902 3.2 24 8 1 5 25% 723 83319 13358 39%
c
c  seconds   switched     rate          size/glue tier1   binary         remaining
c         MB   reductions   conflicts         size  tier2    irredundant
c           level   restarts       redundant    glue   trail        variables
c
c d 22.30 27 199 0 29 8234 23 104564 21941 3.2 24 8 1 5 25% 695 83319 13337 39%
c u 22.35 27 199 0 29 8234 23 104564 20377 3.2 24 8 1 5 25% 711 83319 13337 39%
c v 22.43 27 199 0 29 8234 23 104564 17665 3.2 24 8 1 5 25% 719 83319 13337 39%
c w 22.63 27 199 0 29 8234 23 104564 17328 3.2 24 8 1 5 25% 719 83319 13337 39%
c = 22.97 27 199 0 29 8234 23 104564 17328 3.2 24 8 1 5 25% 869 83319 13262 39%
c d 22.98 27 199 0 29 8234 23 104564 17274 3.2 24 8 1 5 25% 699 83319 13257 39%
c t 22.99 27 199 0 29 8234 23 104564 17274 3.2 24 8 1 5 25% 687 83319 13257 39%
c f 23.01 27 199 0 29 8234 23 104564 17274 3.2 24 8 1 5 25% 689 83307 13258 39%
c c 23.05 27 199 0 29 8234 23 104564 17214 3.2 24 8 1 5 25% 720 83107 13234 39%
c d 23.05 27 199 0 29 8234 23 104564 17214 3.2 24 8 1 5 25% 674 83107 13234 39%
c u 23.09 27 199 0 29 8234 23 104564 16841 3.2 24 8 1 5 25% 681 83107 13234 39%
c v 23.12 27 199 0 29 8234 23 104564 16231 3.2 24 8 1 5 25% 683 83107 13234 39%
c w 23.24 27 199 0 29 8234 23 104564 16069 3.2 24 8 1 5 25% 683 83107 13234 39%
c d 23.56 27 199 0 29 8234 23 104564 16067 3.2 24 8 1 5 25% 679 83107 13232 39%
c t 23.56 27 199 0 29 8234 23 104564 16067 3.2 24 8 1 5 25% 678 83107 13232 39%
c - 24.07 27 196 0 30 8610 24 107622 16441 3.2 25 8 1 5 26% 688 83107 13232 39%
c o 24.33 27 196 0 30 8802 23 110241 18706 3.2 25 8 1 5 26% 718 83107 13232 39%
c - 24.74 27 196 0 31 9107 24 113099 18674 3.2 25 8 1 5 26% 738 83107 13232 39%
c - 25.48 27 195 0 32 9663 23 118669 20468 3.2 25 8 1 5 26% 778 83107 13232 39%
c - 26.39 27 193 0 33 10256 23 124326 22036 3.2 26 8 1 5 26% 821 83107 13232 39%
c
c  seconds   switched      rate          size/glue tier1   binary         remaining
c         MB   reductions    conflicts         size  tier2    irredundant
c           level   restarts        redundant    glue   trail        variables
c
c - 27.33 27 189 0 34 10785 23 130075 23500 3.3 26 8 1 5 27% 855 83107 13232 39%
c c 27.77 27 188 0 34 11049 23 132819 26020 3.3 27 8 1 5 27% 934 82431 13129 39%
c d 27.78 27 188 0 34 11049 23 132819 25645 3.3 27 8 1 5 27% 728 82431 13129 39%
c u 27.83 27 188 0 34 11049 23 132819 23655 3.3 27 8 1 5 27% 747 82431 13129 39%
c v 27.90 27 188 0 34 11049 23 132819 20367 3.3 27 8 1 5 27% 758 82431 13129 39%
c w 28.01 27 188 0 34 11049 23 132819 20360 3.3 27 8 1 5 27% 758 82431 13129 39%
c x 28.09 27 188 0 34 11049 23 132819 20354 3.3 27 8 1 5 27% 770 81147 13129 39%
c d 28.09 27 188 0 34 11049 23 132819 20341 3.3 27 8 1 5 27% 748 81147 13118 39%
c t 28.10 27 188 0 34 11049 23 132819 20341 3.3 27 8 1 5 27% 737 81147 13118 39%
c c 28.16 27 188 0 34 11049 23 132819 20335 3.3 27 8 1 5 27% 741 81131 13116 39%
c d 28.17 27 188 0 34 11049 23 132819 20335 3.3 27 8 1 5 27% 737 81131 13116 39%
c u 28.22 27 188 0 34 11049 23 132819 19821 3.3 27 8 1 5 27% 740 81131 13116 39%
c v 28.26 27 188 0 34 11049 23 132819 19163 3.3 27 8 1 5 27% 742 81131 13116 39%
c w 28.50 27 188 0 34 11049 23 132819 18715 3.3 27 8 1 5 27% 742 81131 13116 39%
c d 28.90 27 188 0 34 11049 23 132819 18715 3.3 27 8 1 5 27% 736 81131 13113 39%
c - 29.13 27 189 0 35 11171 23 135905 18642 3.3 27 8 1 5 27% 747 81131 13113 39%
c - 29.78 27 188 0 36 11605 23 141821 20921 3.3 27 8 1 5 27% 769 81131 13113 39%
c - 30.48 27 186 0 37 12060 22 147822 22923 3.3 27 8 1 5 27% 805 81130 13113 39%
c - 31.09 27 183 0 38 12474 22 153907 24542 3.3 27 8 1 5 27% 830 81130 13113 39%
c s 31.55 27 180 0 38 12782 22 157896 28199 3.2 27 8 1 5 27% 862 80939 13113 39%
c
c  seconds   switched      rate          size/glue tier1   binary         remaining
c         MB   reductions    conflicts         size  tier2    irredundant
c           level   restarts        redundant    glue   trail        variables
c
c e 31.64 27 180 0 38 12782 22 157896 28199 3.2 27 8 1 5 27% 693 91761 11681 34%
c 2 31.64 27 180 0 38 12782 22 157896 28199 3.2 27 8 1 5 27% 692 91761 11681 34%
c s 31.66 27 180 0 38 12782 22 157896 28199 3.2 27 8 1 5 27% 692 89751 11681 34%
c e 31.68 27 180 0 38 12782 22 157896 28199 3.2 27 8 1 5 27% 653 90025 11591 34%
c ^ 31.68 27 180 0 38 12782 22 157896 28199 3.2 27 8 1 5 27% 653 90025 11591 34%
c - 32.03 27 179 0 39 13002 22 160071 19426 3.2 27 8 1 5 27% 668 90016 11591 34%
c o 32.07 27 179 0 39 13015 22 160278 19619 3.2 27 8 1 5 27% 669 90016 11591 34%
c d 32.75 27 176 0 39 13415 22 164814 23703 3.2 27 8 1 5 27% 661 90016 11581 34%
c u 32.79 27 176 0 39 13415 22 164814 21794 3.2 27 8 1 5 27% 674 90016 11581 34%
c v 32.85 27 176 0 39 13415 22 164814 18986 3.2 27 8 1 5 27% 681 90016 11581 34%
c w 32.97 27 176 0 39 13415 22 164814 18961 3.2 27 8 1 5 27% 681 90016 11581 34%
c x 33.04 27 176 0 39 13415 22 164814 18949 3.2 27 8 1 5 27% 713 89752 11581 34%
c d 33.05 27 176 0 39 13415 22 164814 18943 3.2 27 8 1 5 27% 705 89752 11577 34%
c t 33.05 27 176 0 39 13415 22 164814 18943 3.2 27 8 1 5 27% 658 89752 11577 34%
c c 33.15 27 176 0 39 13415 22 164814 18869 3.2 27 8 1 5 27% 697 89562 11555 34%
c d 33.16 27 176 0 39 13415 22 164814 18868 3.2 27 8 1 5 27% 653 89562 11555 34%
c u 33.19 27 176 0 39 13415 22 164814 18483 3.2 27 8 1 5 27% 661 89562 11555 34%
c v 33.23 27 176 0 39 13415 22 164814 17905 3.2 27 8 1 5 27% 661 89562 11555 34%
c w 33.36 27 176 0 39 13415 22 164814 17690 3.2 27 8 1 5 27% 661 89562 11555 34%
c x 33.42 27 176 0 39 13415 22 164814 17690 3.2 27 8 1 5 27% 665 89527 11555 34%
c
c  seconds   switched      rate          size/glue tier1   binary         remaining
c         MB   reductions    conflicts         size  tier2    irredundant
c           level   restarts        redundant    glue   trail        variables
c
c d 33.42 27 176 0 39 13415 22 164814 17687 3.2 27 8 1 5 27% 659 89527 11552 34%
c t 33.43 27 176 0 39 13415 22 164814 17687 3.2 27 8 1 5 27% 654 89527 11552 34%
c - 33.59 27 176 0 40 13516 22 166315 16383 3.2 27 8 1 5 27% 655 89522 11552 34%
c - 34.18 27 174 0 41 13872 21 172640 19101 3.2 27 8 1 5 28% 673 89513 11552 34%
c - 34.68 27 171 0 42 14221 21 179044 21322 3.2 26 8 1 5 27% 702 89507 11552 34%
c - 35.31 27 167 0 43 14690 20 185525 22734 3.1 26 8 1 5 27% 727 89503 11552 34%
c - 35.90 27 162 0 44 15150 20 192083 23825 3.1 26 8 1 5 27% 738 89502 11552 34%
c - 36.44 27 158 0 45 15506 19 198716 24652 3.0 25 8 1 5 27% 752 89498 11552 34%
c c 36.62 27 157 0 45 15607 19 200603 26415 3.0 25 8 1 5 27% 774 89309 11524 34%
c d 36.63 27 157 0 45 15607 19 200603 26311 3.0 25 8 1 5 27% 718 89309 11524 34%
c u 36.67 27 157 0 45 15607 19 200603 24732 3.0 25 8 1 5 27% 737 89309 11524 34%
c v 36.74 27 157 0 45 15607 19 200603 21422 3.0 25 8 1 5 27% 749 89309 11524 34%
c w 36.81 27 157 0 45 15607 19 200603 21015 3.0 25 8 1 5 27% 749 89309 11524 34%
c d 37.17 27 157 0 45 15607 19 200603 21010 3.0 25 8 1 5 27% 745 89309 11522 34%
c t 37.18 27 157 0 45 15607 19 200603 21010 3.0 25 8 1 5 27% 731 89309 11522 34%
c c 37.21 27 157 0 45 15607 19 200603 21010 3.0 25 8 1 5 27% 735 89287 11520 34%
c d 37.22 27 157 0 45 15607 19 200603 21009 3.0 25 8 1 5 27% 731 89287 11520 34%
c u 37.25 27 157 0 45 15607 19 200603 20683 3.0 25 8 1 5 27% 733 89287 11520 34%
c v 37.30 27 157 0 45 15607 19 200603 19977 3.0 25 8 1 5 27% 736 89287 11520 34%
c w 37.36 27 157 0 45 15607 19 200603 19764 3.0 25 8 1 5 27% 736 89287 11520 34%
c
c  seconds   switched      rate          size/glue tier1   binary         remaining
c         MB   reductions    conflicts         size  tier2    irredundant
c           level   restarts        redundant    glue   trail        variables
c
c x 37.43 27 157 0 45 15607 19 200603 19693 3.0 25 8 1 5 27% 745 88241 11520 34%
c t 37.44 27 157 0 45 15607 19 200603 19693 3.0 25 8 1 5 27% 735 88241 11520 34%
c - 37.77 27 154 0 46 15790 19 205425 20019 2.9 25 8 1 5 27% 758 88238 11520 34%
c - 37.94 27 147 0 47 15965 18 212209 21817 2.9 24 8 1 5 26% 799 88238 11520 34%
c - 38.09 27 139 0 48 16077 17 219064 22570 2.9 24 8 1 5 24% 856 88238 11520 34%
c o 38.13 27 137 0 48 16092 16 220587 23912 2.9 23 8 1 5 24% 862 88238 11520 34%
c - 38.27 27 131 0 49 16187 16 225992 23517 2.9 23 8 1 5 23% 882 88238 11520 34%
c i 38.29 27 130 0 49 16201 16 226994 24335 2.8 23 8 1 5 22% 892 88238 11505 34%
c - 38.41 27 124 0 50 16269 15 232995 24049 2.8 22 8 1 5 21% 910 88238 11505 34%
c s 38.59 27 117 0 50 16333 14 240024 30388 2.8 22 8 1 5 20% 912 87999 11505 34%
c e 38.72 27 117 0 50 16333 14 240024 30388 2.8 22 8 1 5 20% 621 99241 10495 31%
c 2 38.72 27 117 0 50 16333 14 240024 30388 2.8 22 8 1 5 20% 615 99241 10495 31%
c s 38.74 27 117 0 50 16333 14 240024 30388 2.8 22 8 1 5 20% 619 96203 10495 31%
c e 38.78 27 117 0 50 16333 14 240024 30388 2.8 22 8 1 5 20% 600 96522 10460 31%
c ! 38.78 27 117 0 50 16333 14 240024 30388 2.8 22 8 1 5 20% 600 96522 10460 31%
c - 38.78 27 117 0 51 16333 14 240067 16208 2.8 22 8 1 5 20% 601 96522 10460 31%
c u 38.82 27 116 0 51 16337 14 240272 15803 2.8 22 8 1 5 20% 601 96522 10460 31%
c v 38.84 27 116 0 51 16337 14 240272 15385 2.8 22 8 1 5 20% 601 96522 10460 31%
c w 38.85 27 116 0 51 16337 14 240272 15352 2.8 22 8 1 5 20% 601 96522 10460 31%
c x 38.89 27 116 0 51 16337 14 240272 15348 2.8 22 8 1 5 20% 602 96376 10460 31%
c
c  seconds   switched      rate          size/glue tier1   binary         remaining
c         MB   reductions    conflicts         size  tier2    irredundant
c           level   restarts        redundant    glue   trail        variables
c
c t 38.90 27 116 0 51 16337 14 240272 15348 2.8 22 8 1 5 20% 599 96376 10460 31%
c f 38.93 27 116 0 51 16337 14 240272 15348 2.8 22 8 1 5 20% 607 96264 10464 31%
c c 38.96 27 116 0 51 16337 14 240272 15347 2.8 22 8 1 5 20% 619 96203 10462 31%
c d 38.96 27 116 0 51 16337 14 240272 15347 2.8 22 8 1 5 20% 615 96203 10462 31%
c u 39.00 27 116 0 51 16337 14 240272 14574 2.8 22 8 1 5 20% 617 96203 10462 31%
c v 39.03 27 116 0 51 16337 14 240272 13898 2.8 22 8 1 5 20% 617 96203 10462 31%
c w 39.04 27 116 0 51 16337 14 240272 13821 2.8 22 8 1 5 20% 617 96203 10462 31%
c t 39.04 27 116 0 51 16337 14 240272 13821 2.8 22 8 1 5 20% 612 96203 10462 31%
c - 39.22 27 110 0 52 16418 13 247208 17401 2.7 21 8 1 5 18% 614 96203 10462 31%
c i 39.24 27 109 0 52 16424 13 248461 18467 2.7 21 8 1 5 18% 618 96202 10461 31%
c - 39.37 27 103 0 53 16501 12 254420 20914 2.7 21 8 1 5 17% 617 96202 10461 31%
c - 39.57 27 98 0 54 16658 12 261700 23282 2.7 20 8 1 5 16% 621 96202 10461 31%
c - 39.77 27 92 0 55 16761 11 269048 24991 2.6 20 8 1 5 15% 629 96200 10461 31%
c i 39.79 27 91 0 55 16761 11 269875 25593 2.6 20 8 1 5 15% 632 96200 10460 31%
c i 39.80 27 91 0 55 16763 11 270117 25768 2.6 20 8 1 5 15% 638 96200 10456 31%
c i 39.81 27 90 0 55 16763 11 270885 26438 2.6 20 8 1 5 15% 645 96200 10455 31%
c i 39.82 27 90 0 55 16763 11 271338 26773 2.6 20 8 1 5 15% 652 96200 10454 31%
c i 39.84 27 89 0 55 16768 11 271850 27147 2.6 19 7 1 5 15% 656 96197 10452 31%
c i 39.84 27 89 0 55 16768 11 272092 27330 2.6 19 7 1 5 15% 660 96196 10451 31%
c i 39.84 27 89 0 55 16768 11 272133 27357 2.6 19 7 1 5 15% 661 96196 10450 31%
c
c  seconds  switched      rate          size/glue tier1   binary         remaining
c         MB  reductions    conflicts         size  tier2    irredundant
c          level   restarts        redundant    glue   trail        variables
c
c i 39.84 27 89 0 55 16768 11 272137 27357 2.6 19 7 1 5 15% 664 96196 10438 31%
c i 39.84 27 89 0 55 16768 11 272167 27367 2.6 19 7 1 5 15% 670 96196 10437 31%
c } 39.84 27 89 0 55 16768 11 272174 27368 2.6 19 7 1 5 15% 673 96196 10425 31%
c 0 39.84 27 89 0 55 16768 11 272174 27368 2.6 19 7 1 5 15% 673 96196 10425 31%
c
c ---- [ result ] ------------------------------------------------------------
c
s UNSATISFIABLE
c
c ---- [ profiling ] ---------------------------------------------------------
c
c          29.10   73.03 %  search
c          29.10   73.03 %  focused
c          10.10   25.35 %  simplify
c           9.70   24.34 %  probe
c           4.06   10.19 %  vivify
c           3.51    8.82 %  sweep
c           0.76    1.92 %  congruence
c           0.71    1.78 %  eliminate
c           0.70    1.76 %  factor
c           0.58    1.44 %  preprocess
c           0.53    1.32 %  substitute
c           0.25    0.64 %  fastel
c           0.24    0.61 %  reduce
c           0.11    0.28 %  subsume
c           0.08    0.20 %  transitive
c           0.05    0.13 %  backbone
c           0.04    0.11 %  lucky
c           0.03    0.07 %  parse
c =============================================
c          39.84  100.00 %  total
c
c ---- [ statistics ] --------------------------------------------------------
c
c chronological:                         7403                3 %  conflicts
c conflicts:                           272174             6830.84 per second
c congruent:                             7519               22 %  variables
c decisions:                          4324778               15.89 per conflict
c eliminated:                           13479               40 %  variables
c factored:                              3314               10 %  variables
c fast_eliminated:                       9871               73 %  eliminated
c fast_strengthened:                       14                0 %  per strengthened
c fast_subsumed:                          142                0 %  per subsumed
c iterations:                              12                0 %  variables
c propagations:                     169562389          4255565    per second
c reductions:                              55             4949    interval
c reordered:                                7            38882    interval
c restarts:                             16768               16    interval
c strengthened:                          8665                0 %  checks
c substituted:                          13343               39 %  variables
c subsumed:                             37918                1 %  checks
c switched:                                 0                0    interval
c vivified:                             75210               12 %  checks
c
c ---- [ glue usage ] --------------------------------------------------------
c
c focused glue 1 used 693868 clauses 60.60% accumulated 60.60% tier1
c focused glue 2 used 199620 clauses 17.43% accumulated 78.03%
c focused glue 3 used  78652 clauses  6.87% accumulated 84.90%
c focused glue 4 used  45250 clauses  3.95% accumulated 88.85%
c focused glue 5 used  30570 clauses  2.67% accumulated 91.52% tier2
c
c ---- [ resources ] ---------------------------------------------------------
c
c maximum-resident-set-size:         28868608 bytes         28 MB
c process-time:                            40s              39.84 seconds
c
c ---- [ shutting down ] -----------------------------------------------------
c
c exit 20
